0 1 0.47
0 2 0.67
0 3 0.76
0 4 0.92
0 5 1.02
0 6 0.76
0 7 1.22
0 8 1.08
0 9 1.03
0 10 1.16
0 11 1.3
0 12 0.95
0 13 1.13
0 14 1.24
0 15 1.1
0 16 0.66
0 17 0.95
0 18 0.88
0 19 1.2
0 20 1.06
0 21 0.7
0 22 0.45
0 23 0.48
0 24 0.66
0 25 0.97
0 26 0.89
0 27 0.98
0 28 0.58
0 29 0.98
0 30 0.79
0 31 1.24
0 32 0.9
0 33 0.59
0 34 1.08
0 35 1.16
0 36 0.92
0 37 0.98
0 38 1.35
0 39 0.97
0 40 0.95
0 41 0.31
0 42 0.34
0 43 0.39
0 44 0.85
0 45 0.85
0 46 1.18
0 47 0.82
0 48 0.9
0 49 0.59
0 50 0.89
0 51 0.73
0 52 1.08
0 53 1.14
0 54 1.31
0 55 1.11
0 56 0.37
0 57 1.16
0 58 1.26
0 59 1.58
0 60 0.97
0 61 0.56
0 62 0.52
0 63 0.56
0 64 0.26
0 65 1.51
0 66 1.36
0 67 1.05
0 68 0.84
0 69 0.83
0 70 1.08
0 71 0.97
0 72 1.04
0 73 0.6
0 74 0.75
0 75 0.97
1 2 0.24
1 3 0.39
1 4 0.4
1 5 0.54
1 6 0.26
1 7 0.69
1 8 0.61
1 9 0.6
1 10 0.69
1 11 0.94
1 12 0.49
1 13 0.71
1 14 0.93
1 15 0.71
1 16 0.21
1 17 0.38
1 18 0.62
1 19 0.79
1 20 0.71
1 21 0.38
1 22 0.15
1 23 0.18
1 24 0.38
1 25 0.73
1 26 0.48
1 27 0.56
1 28 0.22
1 29 0.47
1 30 0.34
1 31 0.82
1 32 0.52
1 33 0.12
1 34 0.53
1 35 0.66
1 36 0.5
1 37 0.64
1 38 0.76
1 39 0.64
1 40 0.5
1 41 0.18
1 42 0.18
1 43 0.12
1 44 0.44
1 45 0.46
1 46 0.53
1 47 0.44
1 48 0.39
1 49 0.32
1 50 0.58
1 51 0.27
1 52 0.58
1 53 0.78
1 54 0.73
1 55 0.74
1 56 0.26
1 57 0.66
1 58 0.7
1 59 1.13
1 60 0.69
1 61 0.33
1 62 0.13
1 63 0.13
1 64 0.3
1 65 0.92
1 66 1
1 67 0.51
1 68 0.35
1 69 0.52
1 70 0.69
1 71 0.69
1 72 0.6
1 73 0.09
1 74 0.28
1 75 0.36
2 3 0.36
2 4 0.2
2 5 0.34
2 6 0.13
2 7 0.44
2 8 0.43
2 9 0.57
2 10 0.58
2 11 0.72
2 12 0.43
2 13 0.44
2 14 0.61
2 15 0.41
2 16 0.31
2 17 0.28
2 18 0.66
2 19 0.5
2 20 0.53
2 21 0.26
2 22 0.26
2 23 0.38
2 24 0.56
2 25 0.63
2 26 0.33
2 27 0.34
2 28 0.15
2 29 0.25
2 30 0.11
2 31 0.88
2 32 0.48
2 33 0.16
2 34 0.36
2 35 0.51
2 36 0.42
2 37 0.41
2 38 0.6
2 39 0.53
2 40 0.39
2 41 0.39
2 42 0.4
2 43 0.39
2 44 0.44
2 45 0.21
2 46 0.31
2 47 0.29
2 48 0.22
2 49 0.42
2 50 0.53
2 51 0.25
2 52 0.37
2 53 0.57
2 54 0.56
2 55 0.82
2 56 0.44
2 57 0.46
2 58 0.56
2 59 0.8
2 60 0.55
2 61 0.35
2 62 0.14
2 63 0.26
2 64 0.47
2 65 0.72
2 66 0.73
2 67 0.28
2 68 0.12
2 69 0.39
2 70 0.56
2 71 0.51
2 72 0.57
2 73 0.13
2 74 0.11
2 75 0.19
3 4 0.42
3 5 0.69
3 6 0.27
3 7 0.45
3 8 0.55
3 9 0.22
3 10 0.46
3 11 0.61
3 12 0.25
3 13 0.64
3 14 0.75
3 15 0.69
3 16 0.14
3 17 0.22
3 18 0.26
3 19 0.62
3 20 0.97
3 21 0.58
3 22 0.47
3 23 0.32
3 24 0.21
3 25 0.3
3 26 0.29
3 27 0.54
3 28 0.5
3 29 0.53
3 30 0.51
3 31 0.53
3 32 0.13
3 33 0.25
3 34 0.43
3 35 0.61
3 36 0.7
3 37 0.7
3 38 0.53
3 39 0.28
3 40 0.16
3 41 0.48
3 42 0.53
3 43 0.41
3 44 0.05
3 45 0.55
3 46 0.52
3 47 0.66
3 48 0.59
3 49 0.19
3 50 0.2
3 51 0.16
3 52 0.59
3 53 0.53
3 54 0.71
3 55 0.5
3 56 0.4
3 57 0.75
3 58 0.38
3 59 0.8
3 60 0.99
3 61 0.68
3 62 0.48
3 63 0.23
3 64 0.67
3 65 0.56
3 66 0.77
3 67 0.43
3 68 0.33
3 69 0.84
3 70 0.91
3 71 0.94
3 72 0.34
3 73 0.34
3 74 0.51
3 75 0.35
4 5 0.31
4 6 0.18
4 7 0.25
4 8 0.25
4 9 0.52
4 10 0.48
4 11 0.48
4 12 0.28
4 13 0.25
4 14 0.43
4 15 0.31
4 16 0.41
4 17 0.23
4 18 0.67
4 19 0.34
4 20 0.44
4 21 0.4
4 22 0.45
4 23 0.52
4 24 0.65
4 25 0.67
4 26 0.19
4 27 0.17
4 28 0.35
4 29 0.18
4 30 0.16
4 31 0.72
4 32 0.51
4 33 0.35
4 34 0.1
4 35 0.28
4 36 0.39
4 37 0.41
4 38 0.53
4 39 0.42
4 40 0.39
4 41 0.55
4 42 0.61
4 43 0.56
4 44 0.43
4 45 0.1
4 46 0.15
4 47 0.31
4 48 0.22
4 49 0.49
4 50 0.59
4 51 0.27
4 52 0.16
4 53 0.34
4 54 0.35
4 55 0.72
4 56 0.67
4 57 0.32
4 58 0.42
4 59 0.68
4 60 0.58
4 61 0.45
4 62 0.33
4 63 0.39
4 64 0.77
4 65 0.57
4 66 0.59
4 67 0.11
4 68 0.11
4 69 0.47
4 70 0.55
4 71 0.5
4 72 0.43
4 73 0.33
4 74 0.26
4 75 0.08
5 6 0.45
5 7 0.51
5 8 0.4
5 9 0.83
5 10 0.84
5 11 0.72
5 12 0.53
5 13 0.26
5 14 0.65
5 15 0.12
5 16 0.65
5 17 0.53
5 18 0.94
5 19 0.5
5 20 0.21
5 21 0.23
5 22 0.52
5 23 0.73
5 24 0.78
5 25 0.98
5 26 0.45
5 27 0.22
5 28 0.33
5 29 0.1
5 30 0.2
5 31 1.04
5 32 0.8
5 33 0.46
5 34 0.29
5 35 0.48
5 36 0.16
5 37 0.12
5 38 0.77
5 39 0.71
5 40 0.6
5 41 0.67
5 42 0.66
5 43 0.58
5 44 0.7
5 45 0.19
5 46 0.36
5 47 0.12
5 48 0.11
5 49 0.69
5 50 0.87
5 51 0.53
5 52 0.29
5 53 0.63
5 54 0.38
5 55 1.09
5 56 0.75
5 57 0.2
5 58 0.65
5 59 0.72
5 60 0.26
5 61 0.38
5 62 0.36
5 63 0.55
5 64 0.75
5 65 0.81
5 66 0.78
5 67 0.39
5 68 0.32
5 69 0.25
5 70 0.27
5 71 0.26
5 72 0.73
5 73 0.48
5 74 0.25
5 75 0.36
6 7 0.38
6 8 0.42
6 9 0.41
6 10 0.52
6 11 0.68
6 12 0.27
6 13 0.47
6 14 0.6
6 15 0.5
6 16 0.2
6 17 0.18
6 18 0.53
6 19 0.52
6 20 0.64
6 21 0.37
6 22 0.36
6 23 0.36
6 24 0.43
6 25 0.57
6 26 0.25
6 27 0.33
6 28 0.29
6 29 0.36
6 30 0.19
6 31 0.64
6 32 0.31
6 33 0.13
6 34 0.28
6 35 0.41
6 36 0.53
6 37 0.56
6 38 0.53
6 39 0.45
6 40 0.27
6 41 0.41
6 42 0.42
6 43 0.34
6 44 0.28
6 45 0.25
6 46 0.31
6 47 0.37
6 48 0.3
6 49 0.33
6 50 0.48
6 51 0.11
6 52 0.36
6 53 0.46
6 54 0.57
6 55 0.6
6 56 0.49
6 57 0.56
6 58 0.44
6 59 0.81
6 60 0.66
6 61 0.42
6 62 0.24
6 63 0.2
6 64 0.57
6 65 0.62
6 66 0.76
6 67 0.26
6 68 0.08
6 69 0.55
6 70 0.66
6 71 0.58
6 72 0.4
6 73 0.17
6 74 0.27
6 75 0.12
7 8 0.12
7 9 0.43
7 10 0.3
7 11 0.25
7 12 0.22
7 13 0.31
7 14 0.24
7 15 0.46
7 16 0.55
7 17 0.28
7 18 0.63
7 19 0.18
7 20 0.64
7 21 0.62
7 22 0.67
7 23 0.7
7 24 0.71
7 25 0.59
7 26 0.14
7 27 0.27
7 28 0.62
7 29 0.4
7 30 0.42
7 31 0.47
7 32 0.39
7 33 0.49
7 34 0.15
7 35 0.08
7 36 0.64
7 37 0.56
7 38 0.26
7 39 0.33
7 40 0.31
7 41 0.8
7 42 0.86
7 43 0.81
7 44 0.43
7 45 0.29
7 46 0.13
7 47 0.6
7 48 0.41
7 49 0.68
7 50 0.56
7 51 0.36
7 52 0.19
7 53 0.15
7 54 0.27
7 55 0.76
7 56 0.84
7 57 0.44
7 58 0.24
7 59 0.41
7 60 0.75
7 61 0.69
7 62 0.63
7 63 0.54
7 64 0.85
7 65 0.3
7 66 0.36
7 67 0.16
7 68 0.35
7 69 0.73
7 70 0.69
7 71 0.76
7 72 0.29
7 73 0.61
7 74 0.53
7 75 0.24
8 9 0.54
8 10 0.39
8 11 0.34
8 12 0.34
8 13 0.19
8 14 0.22
8 15 0.34
8 16 0.62
8 17 0.32
8 18 0.73
8 19 0.12
8 20 0.54
8 21 0.51
8 22 0.67
8 23 0.72
8 24 0.69
8 25 0.72
8 26 0.24
8 27 0.18
8 28 0.55
8 29 0.32
8 30 0.36
8 31 0.64
8 32 0.55
8 33 0.47
8 34 0.11
8 35 0.08
8 36 0.53
8 37 0.44
8 38 0.36
8 39 0.49
8 40 0.38
8 41 0.87
8 42 0.85
8 43 0.84
8 44 0.48
8 45 0.25
8 46 0.09
8 47 0.45
8 48 0.38
8 49 0.7
8 50 0.6
8 51 0.42
8 52 0.12
8 53 0.19
8 54 0.19
8 55 0.84
8 56 0.87
8 57 0.35
8 58 0.34
8 59 0.41
8 60 0.71
8 61 0.73
8 62 0.54
8 63 0.69
8 64 0.81
8 65 0.36
8 66 0.41
8 67 0.18
8 68 0.33
8 69 0.7
8 70 0.64
8 71 0.69
8 72 0.4
8 73 0.52
8 74 0.47
8 75 0.27
9 10 0.24
9 11 0.45
9 12 0.2
9 13 0.65
9 14 0.53
9 15 0.82
9 16 0.39
9 17 0.26
9 18 0.3
9 19 0.62
9 20 0.92
9 21 0.82
9 22 0.72
9 23 0.57
9 24 0.37
9 25 0.18
9 26 0.3
9 27 0.58
9 28 0.69
9 29 0.6
9 30 0.54
9 31 0.26
9 32 0.12
9 33 0.45
9 34 0.53
9 35 0.51
9 36 0.99
9 37 0.88
9 38 0.34
9 39 0.06
9 40 0.15
9 41 0.68
9 42 0.69
9 43 0.6
9 44 0.18
9 45 0.61
9 46 0.48
9 47 0.86
9 48 0.7
9 49 0.37
9 50 0.19
9 51 0.31
9 52 0.55
9 53 0.51
9 54 0.7
9 55 0.28
9 56 0.63
9 57 0.89
9 58 0.23
9 59 0.74
9 60 1.14
9 61 0.88
9 62 0.69
9 63 0.44
9 64 0.82
9 65 0.43
9 66 0.52
9 67 0.4
9 68 0.47
9 69 0.89
9 70 1.18
9 71 1.1
9 72 0.15
9 73 0.58
9 74 0.67
9 75 0.45
10 11 0.24
10 12 0.24
10 13 0.59
10 14 0.36
10 15 0.74
10 16 0.55
10 17 0.39
10 18 0.5
10 19 0.45
10 20 0.9
10 21 0.77
10 22 0.88
10 23 0.71
10 24 0.62
10 25 0.36
10 26 0.3
10 27 0.6
10 28 0.77
10 29 0.61
10 30 0.67
10 31 0.23
10 32 0.36
10 33 0.65
10 34 0.47
10 35 0.34
10 36 1.04
10 37 0.89
10 38 0.11
10 39 0.19
10 40 0.3
10 41 0.9
10 42 0.96
10 43 0.86
10 44 0.43
10 45 0.64
10 46 0.41
10 47 0.88
10 48 0.78
10 49 0.61
10 50 0.45
10 51 0.44
10 52 0.5
10 53 0.25
10 54 0.54
10 55 0.5
10 56 0.76
10 57 0.68
10 58 0.1
10 59 0.51
10 60 1.01
10 61 1.03
10 62 0.78
10 63 0.72
10 64 0.99
10 65 0.16
10 66 0.3
10 67 0.39
10 68 0.5
10 69 1.05
10 70 1.05
10 71 1.04
10 72 0.12
10 73 0.74
10 74 0.69
10 75 0.44
11 12 0.44
11 13 0.55
11 14 0.17
11 15 0.63
11 16 0.64
11 17 0.49
11 18 0.66
11 19 0.31
11 20 0.75
11 21 0.83
11 22 1.04
11 23 0.94
11 24 0.79
11 25 0.63
11 26 0.35
11 27 0.53
11 28 0.84
11 29 0.61
11 30 0.65
11 31 0.4
11 32 0.53
11 33 0.8
11 34 0.37
11 35 0.24
11 36 0.88
11 37 0.72
11 38 0.12
11 39 0.38
11 40 0.49
11 41 1.06
11 42 0.94
11 43 1.01
11 44 0.56
11 45 0.59
11 46 0.36
11 47 0.77
11 48 0.67
11 49 0.79
11 50 0.73
11 51 0.62
11 52 0.4
11 53 0.13
11 54 0.39
11 55 0.71
11 56 1.02
11 57 0.67
11 58 0.25
11 59 0.24
11 60 0.96
11 61 0.94
11 62 0.86
11 63 0.72
11 64 1.16
11 65 0.11
11 66 0.11
11 67 0.44
11 68 0.57
11 69 0.89
11 70 0.87
11 71 0.91
11 72 0.31
11 73 0.78
11 74 0.81
11 75 0.49
12 13 0.53
12 14 0.42
12 15 0.56
12 16 0.3
12 17 0.13
12 18 0.46
12 19 0.44
12 20 0.74
12 21 0.56
12 22 0.68
12 23 0.54
12 24 0.51
12 25 0.33
12 26 0.11
12 27 0.47
12 28 0.62
12 29 0.5
12 30 0.44
12 31 0.38
12 32 0.22
12 33 0.37
12 34 0.32
12 35 0.32
12 36 0.74
12 37 0.63
12 38 0.29
12 39 0.16
12 40 0.08
12 41 0.62
12 42 0.71
12 43 0.64
12 44 0.22
12 45 0.41
12 46 0.3
12 47 0.6
12 48 0.51
12 49 0.41
12 50 0.34
12 51 0.23
12 52 0.36
12 53 0.33
12 54 0.58
12 55 0.51
12 56 0.59
12 57 0.62
12 58 0.16
12 59 0.6
12 60 0.95
12 61 0.64
12 62 0.47
12 63 0.43
12 64 0.81
12 65 0.41
12 66 0.51
12 67 0.2
12 68 0.33
12 69 0.86
12 70 0.83
12 71 0.9
12 72 0.15
12 73 0.41
12 74 0.52
12 75 0.24
13 14 0.34
13 15 0.19
13 16 0.69
13 17 0.44
13 18 0.92
13 19 0.21
13 20 0.33
13 21 0.46
13 22 0.74
13 23 0.76
13 24 0.91
13 25 0.88
13 26 0.36
13 27 0.12
13 28 0.54
13 29 0.21
13 30 0.36
13 31 0.78
13 32 0.74
13 33 0.59
13 34 0.21
13 35 0.25
13 36 0.41
13 37 0.34
13 38 0.55
13 39 0.62
13 40 0.56
13 41 0.82
13 42 0.77
13 43 0.84
13 44 0.67
13 45 0.19
13 46 0.19
13 47 0.39
13 48 0.33
13 49 0.79
13 50 0.84
13 51 0.51
13 52 0.13
13 53 0.39
13 54 0.13
13 55 1.05
13 56 0.91
13 57 0.15
13 58 0.53
13 59 0.43
13 60 0.49
13 61 0.58
13 62 0.56
13 63 0.62
13 64 0.94
13 65 0.58
13 66 0.59
13 67 0.29
13 68 0.39
13 69 0.5
13 70 0.4
13 71 0.44
13 72 0.61
13 73 0.59
13 74 0.42
13 75 0.34
14 15 0.57
14 16 0.74
14 17 0.51
14 18 0.82
14 19 0.16
14 20 0.74
14 21 0.72
14 22 0.89
14 23 0.9
14 24 0.87
14 25 0.71
14 26 0.37
14 27 0.36
14 28 0.83
14 29 0.52
14 30 0.57
14 31 0.58
14 32 0.63
14 33 0.69
14 34 0.34
14 35 0.16
14 36 0.8
14 37 0.66
14 38 0.27
14 39 0.54
14 40 0.52
14 41 0.97
14 42 1.05
14 43 0.95
14 44 0.7
14 45 0.49
14 46 0.28
14 47 0.7
14 48 0.65
14 49 0.77
14 50 0.76
14 51 0.66
14 52 0.35
14 53 0.11
14 54 0.28
14 55 0.91
14 56 1.03
14 57 0.45
14 58 0.4
14 59 0.19
14 60 0.9
14 61 0.87
14 62 0.82
14 63 0.87
14 64 1.2
14 65 0.28
14 66 0.25
14 67 0.33
14 68 0.57
14 69 0.91
14 70 0.79
14 71 0.87
14 72 0.46
14 73 0.72
14 74 0.65
14 75 0.43
15 16 0.63
15 17 0.51
15 18 0.99
15 19 0.39
15 20 0.16
15 21 0.37
15 22 0.57
15 23 0.75
15 24 1
15 25 0.97
15 26 0.5
15 27 0.18
15 28 0.46
15 29 0.16
15 30 0.33
15 31 0.98
15 32 0.75
15 33 0.53
15 34 0.32
15 35 0.43
15 36 0.27
15 37 0.14
15 38 0.77
15 39 0.74
15 40 0.72
15 41 0.79
15 42 0.83
15 43 0.75
15 44 0.82
15 45 0.23
15 46 0.34
15 47 0.26
15 48 0.24
15 49 0.77
15 50 0.97
15 51 0.65
15 52 0.27
15 53 0.54
15 54 0.29
15 55 1.15
15 56 0.85
15 57 0.06
15 58 0.7
15 59 0.65
15 60 0.32
15 61 0.46
15 62 0.57
15 63 0.69
15 64 0.81
15 65 0.68
15 66 0.81
15 67 0.38
15 68 0.44
15 69 0.36
15 70 0.25
15 71 0.29
15 72 0.72
15 73 0.59
15 74 0.34
15 75 0.4
16 17 0.22
16 18 0.37
16 19 0.65
16 20 0.84
16 21 0.52
16 22 0.36
16 23 0.18
16 24 0.26
16 25 0.47
16 26 0.34
16 27 0.59
16 28 0.41
16 29 0.5
16 30 0.39
16 31 0.61
16 32 0.27
16 33 0.13
16 34 0.45
16 35 0.62
16 36 0.77
16 37 0.72
16 38 0.62
16 39 0.39
16 40 0.27
16 41 0.32
16 42 0.34
16 43 0.26
16 44 0.2
16 45 0.47
16 46 0.49
16 47 0.59
16 48 0.45
16 49 0.17
16 50 0.32
16 51 0.14
16 52 0.53
16 53 0.71
16 54 0.71
16 55 0.61
16 56 0.31
16 57 0.7
16 58 0.47
16 59 0.86
16 60 0.88
16 61 0.52
16 62 0.32
16 63 0.1
16 64 0.5
16 65 0.69
16 66 0.77
16 67 0.41
16 68 0.25
16 69 0.71
16 70 0.85
16 71 0.84
16 72 0.41
16 73 0.2
16 74 0.42
16 75 0.29
17 18 0.42
17 19 0.51
17 20 0.69
17 21 0.5
17 22 0.51
17 23 0.47
17 24 0.42
17 25 0.41
17 26 0.12
17 27 0.35
17 28 0.42
17 29 0.46
17 30 0.35
17 31 0.49
17 32 0.23
17 33 0.29
17 34 0.25
17 35 0.39
17 36 0.68
17 37 0.67
17 38 0.45
17 39 0.25
17 40 0.11
17 41 0.58
17 42 0.52
17 43 0.45
17 44 0.21
17 45 0.35
17 46 0.28
17 47 0.55
17 48 0.42
17 49 0.34
17 50 0.33
17 51 0.1
17 52 0.33
17 53 0.38
17 54 0.49
17 55 0.5
17 56 0.49
17 57 0.59
17 58 0.27
17 59 0.68
17 60 0.8
17 61 0.64
17 62 0.4
17 63 0.31
17 64 0.65
17 65 0.45
17 66 0.56
17 67 0.18
17 68 0.18
17 69 0.72
17 70 0.81
17 71 0.79
17 72 0.26
17 73 0.36
17 74 0.39
17 75 0.15
18 19 0.78
18 20 1.09
18 21 0.89
18 22 0.71
18 23 0.51
18 24 0.2
18 25 0.16
18 26 0.51
18 27 0.86
18 28 0.76
18 29 0.79
18 30 0.79
18 31 0.46
18 32 0.21
18 33 0.45
18 34 0.64
18 35 0.75
18 36 0.99
18 37 1.06
18 38 0.67
18 39 0.31
18 40 0.32
18 41 0.58
18 42 0.7
18 43 0.57
18 44 0.22
18 45 0.78
18 46 0.66
18 47 0.89
18 48 0.96
18 49 0.29
18 50 0.1
18 51 0.41
18 52 0.86
18 53 0.8
18 54 0.94
18 55 0.24
18 56 0.5
18 57 0.96
18 58 0.46
18 59 1.05
18 60 1.31
18 61 0.85
18 62 0.71
18 63 0.45
18 64 0.85
18 65 0.63
18 66 0.87
18 67 0.57
18 68 0.54
18 69 1.1
18 70 1.2
18 71 1.12
18 72 0.48
18 73 0.54
18 74 0.79
18 75 0.57
19 20 0.54
19 21 0.69
19 22 0.75
19 23 0.89
19 24 0.8
19 25 0.71
19 26 0.33
19 27 0.23
19 28 0.64
19 29 0.41
19 30 0.44
19 31 0.67
19 32 0.6
19 33 0.67
19 34 0.24
19 35 0.11
19 36 0.62
19 37 0.52
19 38 0.37
19 39 0.57
19 40 0.5
19 41 0.86
19 42 0.82
19 43 0.9
19 44 0.7
19 45 0.32
19 46 0.22
19 47 0.52
19 48 0.51
19 49 0.84
19 50 0.73
19 51 0.58
19 52 0.21
19 53 0.18
19 54 0.15
19 55 0.85
19 56 1.04
19 57 0.34
19 58 0.35
19 59 0.29
19 60 0.73
19 61 0.82
19 62 0.68
19 63 0.79
19 64 1.03
19 65 0.43
19 66 0.37
19 67 0.27
19 68 0.45
19 69 0.68
19 70 0.67
19 71 0.75
19 72 0.44
19 73 0.66
19 74 0.53
19 75 0.42
20 21 0.38
20 22 0.64
20 23 0.87
20 24 1.02
20 25 1.16
20 26 0.72
20 27 0.36
20 28 0.45
20 29 0.32
20 30 0.38
20 31 1.22
20 32 0.98
20 33 0.64
20 34 0.45
20 35 0.62
20 36 0.19
20 37 0.1
20 38 0.88
20 39 0.97
20 40 0.74
20 41 0.84
20 42 0.87
20 43 0.85
20 44 0.99
20 45 0.35
20 46 0.44
20 47 0.24
20 48 0.3
20 49 0.98
20 50 0.99
20 51 0.81
20 52 0.46
20 53 0.71
20 54 0.39
20 55 1.4
20 56 0.9
20 57 0.19
20 58 0.8
20 59 0.76
20 60 0.18
20 61 0.49
20 62 0.65
20 63 0.81
20 64 0.78
20 65 0.92
20 66 0.87
20 67 0.49
20 68 0.58
20 69 0.3
20 70 0.1
20 71 0.17
20 72 0.83
20 73 0.64
20 74 0.45
20 75 0.5
21 22 0.26
21 23 0.53
21 24 0.81
21 25 0.95
21 26 0.52
21 27 0.4
21 28 0.17
21 29 0.26
21 30 0.21
21 31 0.95
21 32 0.66
21 33 0.42
21 34 0.41
21 35 0.6
21 36 0.19
21 37 0.27
21 38 0.88
21 39 0.73
21 40 0.65
21 41 0.49
21 42 0.49
21 43 0.5
21 44 0.63
21 45 0.31
21 46 0.51
21 47 0.1
21 48 0.15
21 49 0.7
21 50 0.86
21 51 0.51
21 52 0.48
21 53 0.73
21 54 0.55
21 55 1.01
21 56 0.68
21 57 0.44
21 58 0.75
21 59 0.97
21 60 0.33
21 61 0.19
21 62 0.22
21 63 0.47
21 64 0.47
21 65 0.97
21 66 0.99
21 67 0.43
21 68 0.3
21 69 0.16
21 70 0.37
21 71 0.26
21 72 0.77
21 73 0.34
21 74 0.12
21 75 0.37
22 23 0.35
22 24 0.55
22 25 0.84
22 26 0.6
22 27 0.56
22 28 0.14
22 29 0.47
22 30 0.31
22 31 1.09
22 32 0.68
22 33 0.27
22 34 0.6
22 35 0.7
22 36 0.45
22 37 0.58
22 38 0.82
22 39 0.81
22 40 0.55
22 41 0.25
22 42 0.2
22 43 0.2
22 44 0.62
22 45 0.46
22 46 0.59
22 47 0.36
22 48 0.34
22 49 0.41
22 50 0.73
22 51 0.43
22 52 0.65
22 53 0.81
22 54 0.73
22 55 0.96
22 56 0.35
22 57 0.66
22 58 0.79
22 59 1.21
22 60 0.64
22 61 0.19
22 62 0.12
22 63 0.31
22 64 0.23
22 65 0.93
22 66 1.14
22 67 0.57
22 68 0.41
22 69 0.41
22 70 0.64
22 71 0.58
22 72 0.76
22 73 0.18
22 74 0.23
22 75 0.42
23 24 0.25
23 25 0.55
23 26 0.52
23 27 0.67
23 28 0.4
23 29 0.75
23 30 0.49
23 31 0.84
23 32 0.44
23 33 0.23
23 34 0.66
23 35 0.75
23 36 0.73
23 37 0.8
23 38 0.86
23 39 0.58
23 40 0.49
23 41 0.16
23 42 0.24
23 43 0.15
23 44 0.32
23 45 0.66
23 46 0.72
23 47 0.66
23 48 0.58
23 49 0.18
23 50 0.43
23 51 0.31
23 52 0.69
23 53 0.87
23 54 0.95
23 55 0.65
23 56 0.08
23 57 0.85
23 58 0.67
23 59 1.07
23 60 0.87
23 61 0.49
23 62 0.31
23 63 0.15
23 64 0.38
23 65 0.87
23 66 1.03
23 67 0.56
23 68 0.41
23 69 0.8
23 70 0.99
23 71 0.91
23 72 0.67
23 73 0.28
23 74 0.45
23 75 0.51
24 25 0.36
24 26 0.51
24 27 0.81
24 28 0.59
24 29 0.73
24 30 0.69
24 31 0.68
24 32 0.28
24 33 0.42
24 34 0.72
24 35 0.76
24 36 0.95
24 37 0.98
24 38 0.74
24 39 0.42
24 40 0.39
24 41 0.43
24 42 0.53
24 43 0.43
24 44 0.24
24 45 0.69
24 46 0.75
24 47 0.91
24 48 0.72
24 49 0.1
24 50 0.24
24 51 0.38
24 52 0.8
24 53 0.83
24 54 0.91
24 55 0.44
24 56 0.3
24 57 0.98
24 58 0.58
24 59 0.97
24 60 1.06
24 61 0.79
24 62 0.56
24 63 0.29
24 64 0.65
24 65 0.77
24 66 0.89
24 67 0.58
24 68 0.53
24 69 0.96
24 70 1.03
24 71 0.93
24 72 0.54
24 73 0.46
24 74 0.7
24 75 0.52
25 26 0.5
25 27 0.76
25 28 0.85
25 29 0.88
25 30 0.82
25 31 0.29
25 32 0.18
25 33 0.55
25 34 0.6
25 35 0.66
25 36 0.96
25 37 1.05
25 38 0.49
25 39 0.2
25 40 0.3
25 41 0.78
25 42 0.74
25 43 0.71
25 44 0.28
25 45 0.7
25 46 0.6
25 47 0.91
25 48 0.85
25 49 0.44
25 50 0.13
25 51 0.41
25 52 0.74
25 53 0.66
25 54 0.82
25 55 0.14
25 56 0.63
25 57 0.89
25 58 0.38
25 59 0.88
25 60 1.24
25 61 0.89
25 62 0.71
25 63 0.53
25 64 0.98
25 65 0.58
25 66 0.66
25 67 0.59
25 68 0.59
25 69 1.07
25 70 1.25
25 71 1.04
25 72 0.3
25 73 0.66
25 74 0.75
25 75 0.58
26 27 0.31
26 28 0.45
26 29 0.35
26 30 0.29
26 31 0.55
26 32 0.33
26 33 0.37
26 34 0.19
26 35 0.23
26 36 0.62
26 37 0.59
26 38 0.32
26 39 0.26
26 40 0.19
26 41 0.64
26 42 0.62
26 43 0.59
26 44 0.35
26 45 0.29
26 46 0.18
26 47 0.5
26 48 0.4
26 49 0.49
26 50 0.44
26 51 0.23
26 52 0.25
26 53 0.28
26 54 0.42
26 55 0.69
26 56 0.67
26 57 0.48
26 58 0.25
26 59 0.61
26 60 0.82
26 61 0.71
26 62 0.43
26 63 0.39
26 64 0.72
26 65 0.39
26 66 0.45
26 67 0.09
26 68 0.22
26 69 0.72
26 70 0.73
26 71 0.76
26 72 0.24
26 73 0.37
26 74 0.39
26 75 0.14
27 28 0.45
27 29 0.14
27 30 0.22
27 31 0.75
27 32 0.63
27 33 0.45
27 34 0.12
27 35 0.23
27 36 0.41
27 37 0.35
27 38 0.55
27 39 0.56
27 40 0.5
27 41 0.79
27 42 0.66
27 43 0.64
27 44 0.55
27 45 0.1
27 46 0.15
27 47 0.3
27 48 0.26
27 49 0.73
27 50 0.73
27 51 0.44
27 52 0.06
27 53 0.39
27 54 0.22
27 55 0.95
27 56 0.85
27 57 0.21
27 58 0.47
27 59 0.51
27 60 0.52
27 61 0.56
27 62 0.46
27 63 0.52
27 64 0.76
27 65 0.55
27 66 0.59
27 67 0.21
27 68 0.27
27 69 0.45
27 70 0.45
27 71 0.47
27 72 0.54
27 73 0.51
27 74 0.34
27 75 0.23
28 29 0.31
28 30 0.22
28 31 1.01
28 32 0.57
28 33 0.27
28 34 0.47
28 35 0.66
28 36 0.29
28 37 0.4
28 38 0.92
28 39 0.78
28 40 0.6
28 41 0.34
28 42 0.34
28 43 0.29
28 44 0.56
28 45 0.32
28 46 0.45
28 47 0.24
28 48 0.22
28 49 0.52
28 50 0.71
28 51 0.41
28 52 0.44
28 53 0.71
28 54 0.61
28 55 0.98
28 56 0.46
28 57 0.52
28 58 0.66
28 59 0.87
28 60 0.47
28 61 0.18
28 62 0.11
28 63 0.34
28 64 0.38
28 65 0.94
28 66 1.05
28 67 0.47
28 68 0.27
28 69 0.28
28 70 0.48
28 71 0.42
28 72 0.75
28 73 0.18
28 74 0.1
28 75 0.31
29 30 0.14
29 31 0.82
29 32 0.62
29 33 0.43
29 34 0.23
29 35 0.42
29 36 0.27
29 37 0.21
29 38 0.67
29 39 0.63
29 40 0.53
29 41 0.59
29 42 0.55
29 43 0.61
29 44 0.64
29 45 0.07
29 46 0.27
29 47 0.17
29 48 0.1
29 49 0.7
29 50 0.71
29 51 0.45
29 52 0.19
29 53 0.52
29 54 0.33
29 55 0.96
29 56 0.79
29 57 0.22
29 58 0.56
29 59 0.72
29 60 0.38
29 61 0.41
29 62 0.38
29 63 0.58
29 64 0.71
29 65 0.68
29 66 0.78
29 67 0.27
29 68 0.23
29 69 0.38
29 70 0.35
29 71 0.36
29 72 0.65
29 73 0.37
29 74 0.2
29 75 0.28
30 31 0.79
30 32 0.5
30 33 0.3
30 34 0.22
30 35 0.42
30 36 0.32
30 37 0.32
30 38 0.68
30 39 0.6
30 40 0.44
30 41 0.48
30 42 0.47
30 43 0.44
30 44 0.48
30 45 0.12
30 46 0.3
30 47 0.2
30 48 0.11
30 49 0.5
30 50 0.65
30 51 0.31
30 52 0.25
30 53 0.53
30 54 0.46
30 55 0.86
30 56 0.62
30 57 0.38
30 58 0.55
30 59 0.69
30 60 0.49
30 61 0.36
30 62 0.24
30 63 0.34
30 64 0.56
30 65 0.74
30 66 0.81
30 67 0.27
30 68 0.14
30 69 0.34
30 70 0.44
30 71 0.46
30 72 0.55
30 73 0.25
30 74 0.1
30 75 0.17
31 32 0.4
31 33 0.72
31 34 0.64
31 35 0.59
31 36 1.06
31 37 1.15
31 38 0.3
31 39 0.24
31 40 0.39
31 41 1.04
31 42 0.95
31 43 1.03
31 44 0.5
31 45 0.78
31 46 0.63
31 47 1.03
31 48 0.86
31 49 0.6
31 50 0.41
31 51 0.59
31 52 0.67
31 53 0.5
31 54 0.73
31 55 0.34
31 56 0.89
31 57 0.84
31 58 0.31
31 59 0.72
31 60 1.27
31 61 1.08
31 62 0.83
31 63 0.72
31 64 1.25
31 65 0.33
31 66 0.42
31 67 0.54
31 68 0.7
31 69 1.21
31 70 1.35
31 71 1.24
31 72 0.25
31 73 0.77
31 74 0.96
31 75 0.6
32 33 0.41
32 34 0.49
32 35 0.54
32 36 0.78
32 37 0.88
32 38 0.46
32 39 0.16
32 40 0.15
32 41 0.64
32 42 0.61
32 43 0.59
32 44 0.08
32 45 0.6
32 46 0.55
32 47 0.77
32 48 0.64
32 49 0.28
32 50 0.13
32 51 0.26
32 52 0.54
32 53 0.54
32 54 0.69
32 55 0.3
32 56 0.47
32 57 0.93
32 58 0.29
32 59 0.8
32 60 0.98
32 61 0.74
32 62 0.53
32 63 0.37
32 64 0.71
32 65 0.48
32 66 0.62
32 67 0.4
32 68 0.38
32 69 0.85
32 70 1.02
32 71 0.96
32 72 0.24
32 73 0.48
32 74 0.65
32 75 0.36
33 34 0.4
33 35 0.58
33 36 0.57
33 37 0.53
33 38 0.66
33 39 0.45
33 40 0.35
33 41 0.29
33 42 0.29
33 43 0.24
33 44 0.34
33 45 0.38
33 46 0.48
33 47 0.48
33 48 0.41
33 49 0.29
33 50 0.44
33 51 0.17
33 52 0.44
33 53 0.6
33 54 0.69
33 55 0.67
33 56 0.3
33 57 0.58
33 58 0.53
33 59 0.95
33 60 0.79
33 61 0.37
33 62 0.15
33 63 0.1
33 64 0.41
33 65 0.81
33 66 0.87
33 67 0.39
33 68 0.22
33 69 0.54
33 70 0.71
33 71 0.68
33 72 0.49
33 73 0.08
33 74 0.28
33 75 0.25
34 35 0.18
34 36 0.45
34 37 0.43
34 38 0.42
34 39 0.45
34 40 0.34
34 41 0.71
34 42 0.69
34 43 0.57
34 44 0.45
34 45 0.17
34 46 0.04
34 47 0.41
34 48 0.31
34 49 0.58
34 50 0.59
34 51 0.34
34 52 0.08
34 53 0.27
34 54 0.25
34 55 0.85
34 56 0.75
34 57 0.32
34 58 0.35
34 59 0.5
34 60 0.58
34 61 0.61
34 62 0.4
34 63 0.54
34 64 0.8
34 65 0.5
34 66 0.51
34 67 0.08
34 68 0.22
34 69 0.52
34 70 0.55
34 71 0.6
34 72 0.4
34 73 0.47
34 74 0.37
34 75 0.15
35 36 0.61
35 37 0.53
35 38 0.3
35 39 0.44
35 40 0.39
35 41 0.78
35 42 0.84
35 43 0.77
35 44 0.58
35 45 0.33
35 46 0.14
35 47 0.62
35 48 0.46
35 49 0.76
35 50 0.64
35 51 0.48
35 52 0.19
35 53 0.12
35 54 0.23
35 55 0.88
35 56 0.82
35 57 0.4
35 58 0.28
35 59 0.31
35 60 0.73
35 61 0.82
35 62 0.66
35 63 0.62
35 64 0.97
35 65 0.33
35 66 0.32
35 67 0.19
35 68 0.41
35 69 0.73
35 70 0.64
35 71 0.71
35 72 0.35
35 73 0.63
35 74 0.54
35 75 0.29
36 37 0.13
36 38 0.82
36 39 0.83
36 40 0.73
36 41 0.65
36 42 0.55
36 43 0.59
36 44 0.77
36 45 0.33
36 46 0.46
36 47 0.11
36 48 0.19
36 49 0.82
36 50 1.05
36 51 0.56
36 52 0.46
36 53 0.75
36 54 0.58
36 55 1.09
36 56 0.74
36 57 0.31
36 58 0.72
36 59 0.9
36 60 0.18
36 61 0.3
36 62 0.39
36 63 0.57
36 64 0.64
36 65 0.98
36 66 1.05
36 67 0.49
36 68 0.44
36 69 0.12
36 70 0.21
36 71 0.1
36 72 0.91
36 73 0.48
36 74 0.28
36 75 0.54
37 38 0.81
37 39 0.88
37 40 0.7
37 41 0.84
37 42 0.66
37 43 0.65
37 44 0.87
37 45 0.28
37 46 0.44
37 47 0.17
37 48 0.21
37 49 0.88
37 50 1.05
37 51 0.61
37 52 0.39
37 53 0.7
37 54 0.43
37 55 1.24
37 56 0.91
37 57 0.21
37 58 0.77
37 59 0.77
37 60 0.19
37 61 0.43
37 62 0.43
37 63 0.73
37 64 0.81
37 65 0.86
37 66 0.92
37 67 0.48
37 68 0.48
37 69 0.23
37 70 0.15
37 71 0.14
37 72 0.75
37 73 0.53
37 74 0.34
37 75 0.43
38 39 0.28
38 40 0.37
38 41 0.98
38 42 0.99
38 43 0.84
38 44 0.48
38 45 0.54
38 46 0.42
38 47 0.81
38 48 0.74
38 49 0.71
38 50 0.55
38 51 0.54
38 52 0.44
38 53 0.19
38 54 0.52
38 55 0.66
38 56 0.95
38 57 0.66
38 58 0.16
38 59 0.34
38 60 1.12
38 61 0.92
38 62 0.86
38 63 0.7
38 64 1.07
38 65 0.08
38 66 0.18
38 67 0.37
38 68 0.52
38 69 0.96
38 70 0.97
38 71 0.96
38 72 0.23
38 73 0.7
38 74 0.76
38 75 0.45
39 40 0.18
39 41 0.74
39 42 0.83
39 43 0.64
39 44 0.21
39 45 0.57
39 46 0.4
39 47 0.74
39 48 0.74
39 49 0.47
39 50 0.27
39 51 0.31
39 52 0.55
39 53 0.4
39 54 0.65
39 55 0.38
39 56 0.65
39 57 0.71
39 58 0.16
39 59 0.7
39 60 1.14
39 61 0.8
39 62 0.64
39 63 0.53
39 64 0.86
39 65 0.37
39 66 0.44
39 67 0.34
39 68 0.46
39 69 0.97
39 70 1.01
39 71 1.06
39 72 0.08
39 73 0.55
39 74 0.71
39 75 0.42
40 41 0.56
40 42 0.66
40 43 0.6
40 44 0.17
40 45 0.45
40 46 0.38
40 47 0.7
40 48 0.57
40 49 0.33
40 50 0.28
40 51 0.18
40 52 0.44
40 53 0.39
40 54 0.59
40 55 0.45
40 56 0.54
40 57 0.69
40 58 0.25
40 59 0.61
40 60 1.01
40 61 0.71
40 62 0.53
40 63 0.39
40 64 0.81
40 65 0.44
40 66 0.51
40 67 0.3
40 68 0.29
40 69 0.74
40 70 0.94
40 71 0.81
40 72 0.19
40 73 0.43
40 74 0.53
40 75 0.25
41 42 0.07
41 43 0.06
41 44 0.5
41 45 0.64
41 46 0.68
41 47 0.65
41 48 0.53
41 49 0.32
41 50 0.62
41 51 0.44
41 52 0.72
41 53 0.89
41 54 1.06
41 55 0.79
41 56 0.16
41 57 0.83
41 58 0.87
41 59 1.15
41 60 0.98
41 61 0.48
41 62 0.32
41 63 0.24
41 64 0.18
41 65 0.93
41 66 1.23
41 67 0.65
41 68 0.5
41 69 0.67
41 70 0.8
41 71 0.71
41 72 0.78
41 73 0.24
41 74 0.41
41 75 0.55
42 43 0.08
42 44 0.55
42 45 0.64
42 46 0.76
42 47 0.63
42 48 0.56
42 49 0.41
42 50 0.7
42 51 0.5
42 52 0.69
42 53 0.96
42 54 0.83
42 55 0.82
42 56 0.25
42 57 0.79
42 58 0.81
42 59 1.31
42 60 0.79
42 61 0.32
42 62 0.28
42 63 0.26
42 64 0.14
42 65 1.02
42 66 1.2
42 67 0.64
42 68 0.5
42 69 0.59
42 70 0.77
42 71 0.69
42 72 0.79
42 73 0.24
42 74 0.45
42 75 0.51
43 44 0.44
43 45 0.6
43 46 0.61
43 47 0.51
43 48 0.47
43 49 0.33
43 50 0.58
43 51 0.36
43 52 0.73
43 53 0.94
43 54 0.95
43 55 0.79
43 56 0.2
43 57 0.72
43 58 0.75
43 59 1
43 60 0.77
43 61 0.37
43 62 0.22
43 63 0.17
43 64 0.22
43 65 1.12
43 66 1.18
43 67 0.55
43 68 0.38
43 69 0.62
43 70 0.86
43 71 0.68
43 72 0.78
43 73 0.19
43 74 0.41
43 75 0.43
44 45 0.5
44 46 0.5
44 47 0.7
44 48 0.59
44 49 0.23
44 50 0.16
44 51 0.2
44 52 0.52
44 53 0.52
44 54 0.8
44 55 0.37
44 56 0.4
44 57 0.78
44 58 0.37
44 59 0.87
44 60 0.99
44 61 0.8
44 62 0.48
44 63 0.29
44 64 0.66
44 65 0.6
44 66 0.6
44 67 0.43
44 68 0.34
44 69 0.88
44 70 0.86
44 71 0.89
44 72 0.31
44 73 0.41
44 74 0.54
44 75 0.33
45 46 0.19
45 47 0.23
45 48 0.16
45 49 0.57
45 50 0.71
45 51 0.37
45 52 0.14
45 53 0.41
45 54 0.33
45 55 0.85
45 56 0.72
45 57 0.23
45 58 0.5
45 59 0.6
45 60 0.44
45 61 0.47
45 62 0.33
45 63 0.43
45 64 0.63
45 65 0.67
45 66 0.68
45 67 0.2
45 68 0.2
45 69 0.38
45 70 0.4
45 71 0.4
45 72 0.51
45 73 0.37
45 74 0.23
45 75 0.22
46 47 0.42
46 48 0.36
46 49 0.65
46 50 0.67
46 51 0.39
46 52 0.08
46 53 0.23
46 54 0.25
46 55 0.76
46 56 0.83
46 57 0.31
46 58 0.3
46 59 0.44
46 60 0.59
46 61 0.65
46 62 0.46
46 63 0.55
46 64 0.92
46 65 0.45
46 66 0.54
46 67 0.1
46 68 0.27
46 69 0.64
46 70 0.54
46 71 0.63
46 72 0.39
46 73 0.51
46 74 0.41
46 75 0.19
47 48 0.09
47 49 0.75
47 50 0.81
47 51 0.47
47 52 0.38
47 53 0.71
47 54 0.47
47 55 1.18
47 56 0.76
47 57 0.3
47 58 0.78
47 59 0.85
47 60 0.27
47 61 0.27
47 62 0.35
47 63 0.51
47 64 0.55
47 65 0.91
47 66 0.95
47 67 0.44
47 68 0.35
47 69 0.16
47 70 0.31
47 71 0.2
47 72 0.8
47 73 0.43
47 74 0.17
47 75 0.39
48 49 0.66
48 50 0.7
48 51 0.41
48 52 0.31
48 53 0.63
48 54 0.41
48 55 1.07
48 56 0.71
48 57 0.29
48 58 0.61
48 59 0.72
48 60 0.34
48 61 0.33
48 62 0.28
48 63 0.49
48 64 0.53
48 65 0.72
48 66 0.88
48 67 0.33
48 68 0.28
48 69 0.27
48 70 0.34
48 71 0.32
48 72 0.68
48 73 0.33
48 74 0.14
48 75 0.27
49 50 0.27
49 51 0.28
49 52 0.67
49 53 0.72
49 54 0.87
49 55 0.54
49 56 0.23
49 57 0.86
49 58 0.65
49 59 0.94
49 60 1.1
49 61 0.68
49 62 0.42
49 63 0.18
49 64 0.52
49 65 0.75
49 66 0.94
49 67 0.53
49 68 0.48
49 69 0.85
49 70 0.92
49 71 0.95
49 72 0.47
49 73 0.29
49 74 0.54
49 75 0.49
50 51 0.33
50 52 0.64
50 53 0.61
50 54 0.86
50 55 0.25
50 56 0.55
50 57 0.83
50 58 0.42
50 59 0.93
50 60 1.21
50 61 0.88
50 62 0.59
50 63 0.4
50 64 0.82
50 65 0.55
50 66 0.68
50 67 0.51
50 68 0.53
50 69 0.93
50 70 1.19
50 71 1.12
50 72 0.34
50 73 0.61
50 74 0.74
50 75 0.56
51 52 0.4
51 53 0.47
51 54 0.66
51 55 0.61
51 56 0.44
51 57 0.58
51 58 0.36
51 59 0.74
51 60 0.88
51 61 0.54
51 62 0.32
51 63 0.19
51 64 0.56
51 65 0.64
51 66 0.7
51 67 0.25
51 68 0.19
51 69 0.63
51 70 0.74
51 71 0.74
51 72 0.35
51 73 0.23
51 74 0.32
51 75 0.17
52 53 0.29
52 54 0.23
52 55 0.94
52 56 0.78
52 57 0.24
52 58 0.39
52 59 0.5
52 60 0.56
52 61 0.58
52 62 0.51
52 63 0.52
52 64 0.76
52 65 0.51
52 66 0.6
52 67 0.15
52 68 0.24
52 69 0.59
52 70 0.53
52 71 0.61
52 72 0.48
52 73 0.52
52 74 0.36
52 75 0.21
53 54 0.3
53 55 0.83
53 56 0.82
53 57 0.56
53 58 0.22
53 59 0.23
53 60 0.82
53 61 0.86
53 62 0.76
53 63 0.7
53 64 1.03
53 65 0.22
53 66 0.27
53 67 0.25
53 68 0.48
53 69 0.89
53 70 0.73
53 71 0.8
53 72 0.32
53 73 0.68
53 74 0.63
53 75 0.41
54 55 1.01
54 56 1.02
54 57 0.22
54 58 0.56
54 59 0.36
54 60 0.58
54 61 0.85
54 62 0.75
54 63 0.77
54 64 1.01
54 65 0.55
54 66 0.55
54 67 0.33
54 68 0.45
54 69 0.63
54 70 0.49
54 71 0.62
54 72 0.57
54 73 0.62
54 74 0.57
54 75 0.41
55 56 0.79
55 57 1.16
55 58 0.5
55 59 0.98
55 60 1.48
55 61 1.15
55 62 0.94
55 63 0.71
55 64 1.01
55 65 0.61
55 66 0.76
55 67 0.65
55 68 0.65
55 69 1.21
55 70 1.27
55 71 1.36
55 72 0.4
55 73 0.73
55 74 1.01
55 75 0.66
56 57 0.9
56 58 0.85
56 59 1.13
56 60 0.96
56 61 0.51
56 62 0.4
56 63 0.25
56 64 0.33
56 65 1.07
56 66 1.05
56 67 0.69
56 68 0.51
56 69 0.77
56 70 0.93
56 71 0.99
56 72 0.73
56 73 0.36
56 74 0.52
56 75 0.53
57 58 0.71
57 59 0.56
57 60 0.4
57 61 0.52
57 62 0.61
57 63 0.72
57 64 0.83
57 65 0.67
57 66 0.76
57 67 0.39
57 68 0.43
57 69 0.45
57 70 0.29
57 71 0.37
57 72 0.74
57 73 0.65
57 74 0.39
57 75 0.42
58 59 0.5
58 60 0.94
58 61 0.86
58 62 0.65
58 63 0.61
58 64 1.03
58 65 0.24
58 66 0.31
58 67 0.32
58 68 0.47
58 69 0.85
58 70 0.93
58 71 0.88
58 72 0.08
58 73 0.61
58 74 0.6
58 75 0.35
59 60 1.11
59 61 1.24
59 62 0.9
59 63 1.05
59 64 1.33
59 65 0.33
59 66 0.25
59 67 0.52
59 68 0.72
59 69 1.02
59 70 0.88
59 71 0.87
59 72 0.57
59 73 0.84
59 74 0.9
59 75 0.71
60 61 0.44
60 62 0.65
60 63 0.82
60 64 0.88
60 65 1.16
60 66 1.18
60 67 0.65
60 68 0.62
60 69 0.2
60 70 0.07
60 71 0.08
60 72 1.12
60 73 0.64
60 74 0.46
60 75 0.61
61 62 0.26
61 63 0.42
61 64 0.31
61 65 0.96
61 66 1.06
61 67 0.59
61 68 0.42
61 69 0.22
61 70 0.51
61 71 0.34
61 72 0.88
61 73 0.35
61 74 0.23
61 75 0.49
62 63 0.23
62 64 0.32
62 65 0.85
62 66 0.97
62 67 0.44
62 68 0.25
62 69 0.42
62 70 0.59
62 71 0.51
62 72 0.58
62 73 0.09
62 74 0.16
62 75 0.32
63 64 0.4
63 65 0.88
63 66 0.92
63 67 0.43
63 68 0.3
63 69 0.58
63 70 0.73
63 71 0.77
63 72 0.51
63 73 0.14
63 74 0.32
63 75 0.31
64 65 1.12
64 66 1.29
64 67 0.72
64 68 0.6
64 69 0.51
64 70 0.77
64 71 0.68
64 72 0.96
64 73 0.33
64 74 0.45
64 75 0.58
65 66 0.12
65 67 0.41
65 68 0.66
65 69 0.96
65 70 1.02
65 71 0.99
65 72 0.28
65 73 0.81
65 74 0.74
65 75 0.54
66 67 0.57
66 68 0.64
66 69 1.07
66 70 0.94
66 71 1.18
66 72 0.38
66 73 0.93
66 74 0.83
66 75 0.64
67 68 0.16
67 69 0.6
67 70 0.67
67 71 0.6
67 72 0.3
67 73 0.41
67 74 0.38
67 75 0.12
68 69 0.49
68 70 0.55
68 71 0.5
68 72 0.43
68 73 0.22
68 74 0.2
68 75 0.07
69 70 0.27
69 71 0.15
69 72 0.92
69 73 0.48
69 74 0.31
69 75 0.59
70 71 0.13
70 72 0.99
70 73 0.64
70 74 0.46
70 75 0.6
71 72 1.01
71 73 0.58
71 74 0.37
71 75 0.53
72 73 0.61
72 74 0.72
72 75 0.39
73 74 0.21
73 75 0.31
74 75 0.26
